
Gurobi 8.0.1 (linux64, Python) logging started Mon Apr  6 12:43:13 2020

Academic license - for non-commercial use only

Gurobi 8.0.1 (linux64, Python) logging started Mon Apr  6 13:34:01 2020

Academic license - for non-commercial use only

Gurobi 8.0.1 (linux64, Python) logging started Mon Apr  6 13:39:36 2020

Academic license - for non-commercial use only

Gurobi 8.0.1 (linux64, Python) logging started Mon Apr  6 14:27:02 2020

Academic license - for non-commercial use only

Gurobi 8.0.1 (linux64, Python) logging started Tue Apr  7 10:29:21 2020

Academic license - for non-commercial use only

Gurobi 8.0.1 (linux64, Python) logging started Tue Apr  7 12:36:29 2020

Academic license - for non-commercial use only

Gurobi 8.0.1 (linux64, Python) logging started Tue Apr  7 12:46:13 2020

Academic license - for non-commercial use only

Gurobi 8.0.1 (linux64, Python) logging started Tue Apr  7 13:04:09 2020

Academic license - for non-commercial use only

Gurobi 8.0.1 (linux64, Python) logging started Tue Apr  7 14:12:27 2020

Academic license - for non-commercial use only

Gurobi 8.0.1 (linux64, Python) logging started Tue Apr  7 14:22:45 2020

Academic license - for non-commercial use only

Gurobi 8.0.1 (linux64, Python) logging started Thu Apr 30 13:14:35 2020

Academic license - for non-commercial use only

Gurobi 8.0.1 (linux64, Python) logging started Thu Apr 30 13:34:05 2020

Academic license - for non-commercial use only

Gurobi 8.0.1 (linux64, Python) logging started Thu Apr 30 13:56:03 2020

Academic license - for non-commercial use only

Gurobi 8.0.1 (linux64, Python) logging started Thu Apr 30 14:16:30 2020

Academic license - for non-commercial use only

Gurobi 8.0.1 (linux64, Python) logging started Thu Apr 30 15:52:53 2020

Academic license - for non-commercial use only

Gurobi 8.0.1 (linux64, Python) logging started Thu Apr 30 16:27:29 2020

Academic license - for non-commercial use only

Gurobi 8.0.1 (linux64, Python) logging started Thu Apr 30 17:32:22 2020

Academic license - for non-commercial use only

Gurobi 8.0.1 (linux64, Python) logging started Thu Apr 30 18:02:09 2020

Academic license - for non-commercial use only

Gurobi 8.0.1 (linux64, Python) logging started Thu Apr 30 18:51:49 2020

Academic license - for non-commercial use only

Gurobi 8.0.1 (linux64, Python) logging started Thu Apr 30 20:38:50 2020

Academic license - for non-commercial use only

Gurobi 8.0.1 (linux64, Python) logging started Thu Apr 30 20:39:34 2020

Academic license - for non-commercial use only

Gurobi 8.0.1 (linux64, Python) logging started Thu Apr 30 20:41:40 2020

Academic license - for non-commercial use only

Gurobi 8.0.1 (linux64, Python) logging started Thu Apr 30 20:44:02 2020

Academic license - for non-commercial use only

Gurobi 8.0.1 (linux64, Python) logging started Thu Apr 30 20:45:45 2020

Academic license - for non-commercial use only

Gurobi 8.0.1 (linux64, Python) logging started Thu Apr 30 20:48:04 2020

Academic license - for non-commercial use only

Gurobi 8.0.1 (linux64, Python) logging started Thu Apr 30 22:40:32 2020

Academic license - for non-commercial use only

Gurobi 8.0.1 (linux64, Python) logging started Thu Apr 30 23:18:36 2020

Academic license - for non-commercial use only

Gurobi 8.0.1 (linux64, Python) logging started Thu Apr 30 23:22:58 2020

Academic license - for non-commercial use only

Gurobi 8.0.1 (linux64, Python) logging started Thu Apr 30 23:44:59 2020

Academic license - for non-commercial use only

Gurobi 8.0.1 (linux64, Python) logging started Fri May  1 00:14:07 2020

Academic license - for non-commercial use only

Gurobi 8.0.1 (linux64, Python) logging started Fri May  1 00:27:45 2020

Academic license - for non-commercial use only

Gurobi 8.0.1 (linux64, Python) logging started Fri May  1 00:31:37 2020

Academic license - for non-commercial use only

Gurobi 8.0.1 (linux64, Python) logging started Fri May  1 00:36:09 2020

Academic license - for non-commercial use only

Gurobi 8.0.1 (linux64, Python) logging started Fri May  1 14:36:48 2020

Academic license - for non-commercial use only

Gurobi 8.0.1 (linux64, Python) logging started Fri May  1 15:03:26 2020

Academic license - for non-commercial use only

Gurobi 8.0.1 (linux64, Python) logging started Fri May  1 16:02:56 2020

Academic license - for non-commercial use only

Gurobi 8.0.1 (linux64, Python) logging started Fri May  1 16:34:30 2020

Academic license - for non-commercial use only

Gurobi 8.0.1 (linux64, Python) logging started Fri May  1 16:59:18 2020

Academic license - for non-commercial use only

Gurobi 8.0.1 (linux64, Python) logging started Fri May  1 17:19:36 2020

Academic license - for non-commercial use only

Gurobi 8.0.1 (linux64, Python) logging started Fri May  1 17:37:09 2020

Academic license - for non-commercial use only

Gurobi 8.0.1 (linux64, Python) logging started Fri May  1 17:59:38 2020

Academic license - for non-commercial use only

Gurobi 8.0.1 (linux64, Python) logging started Fri May  1 20:17:26 2020

Academic license - for non-commercial use only

Gurobi 8.0.1 (linux64, Python) logging started Fri May  1 23:58:16 2020

Academic license - for non-commercial use only

Gurobi 8.0.1 (linux64, Python) logging started Sat May  2 00:35:22 2020

Academic license - for non-commercial use only

Gurobi 8.0.1 (linux64, Python) logging started Sat May  2 09:51:37 2020

Academic license - for non-commercial use only

Gurobi 8.0.1 (linux64, Python) logging started Sat May  2 11:48:32 2020

Academic license - for non-commercial use only

Gurobi 8.0.1 (linux64, Python) logging started Sat May  2 12:17:23 2020

Academic license - for non-commercial use only

Gurobi 8.0.1 (linux64, Python) logging started Wed May  6 18:18:46 2020

Academic license - for non-commercial use only

Gurobi 8.0.1 (linux64, Python) logging started Wed May  6 19:01:09 2020

Academic license - for non-commercial use only

Gurobi 8.0.1 (linux64, Python) logging started Wed May  6 19:25:50 2020

Academic license - for non-commercial use only

Gurobi 8.0.1 (linux64, Python) logging started Wed May  6 19:41:39 2020

Academic license - for non-commercial use only

Gurobi 8.0.1 (linux64, Python) logging started Wed May  6 20:01:38 2020

Academic license - for non-commercial use only

Gurobi 8.0.1 (linux64, Python) logging started Wed May  6 20:23:01 2020

Academic license - for non-commercial use only

Gurobi 8.0.1 (linux64, Python) logging started Thu May  7 12:19:22 2020

Academic license - for non-commercial use only

Gurobi 8.0.1 (linux64, Python) logging started Thu May  7 12:37:07 2020

Academic license - for non-commercial use only

Gurobi 8.0.1 (linux64, Python) logging started Thu May  7 12:37:46 2020

Academic license - for non-commercial use only

Gurobi 8.0.1 (linux64, Python) logging started Thu May  7 12:39:16 2020

Academic license - for non-commercial use only

Gurobi 8.0.1 (linux64, Python) logging started Thu May  7 12:52:46 2020

Academic license - for non-commercial use only

Gurobi 8.0.1 (linux64, Python) logging started Thu May  7 13:02:01 2020

Academic license - for non-commercial use only

Gurobi 8.0.1 (linux64, Python) logging started Fri May  8 09:26:04 2020

Academic license - for non-commercial use only

Gurobi 8.0.1 (linux64, Python) logging started Fri May  8 10:55:58 2020

Academic license - for non-commercial use only

Gurobi 8.0.1 (linux64, Python) logging started Fri May  8 11:24:34 2020

Academic license - for non-commercial use only

Gurobi 8.0.1 (linux64, Python) logging started Fri May  8 12:04:51 2020

Academic license - for non-commercial use only

Gurobi 8.0.1 (linux64, Python) logging started Fri May  8 12:30:24 2020

Academic license - for non-commercial use only

Gurobi 8.0.1 (linux64, Python) logging started Fri May  8 13:08:38 2020

Academic license - for non-commercial use only

Gurobi 8.0.1 (linux64, Python) logging started Fri May  8 14:21:41 2020

Academic license - for non-commercial use only

Gurobi 8.0.1 (linux64, Python) logging started Fri May  8 18:43:52 2020

Academic license - for non-commercial use only

Gurobi 8.0.1 (linux64, Python) logging started Fri May  8 20:51:20 2020

Academic license - for non-commercial use only

Gurobi 8.0.1 (linux64, Python) logging started Fri May  8 22:20:02 2020

Academic license - for non-commercial use only

Gurobi 8.0.1 (linux64, Python) logging started Fri May  8 23:05:43 2020

Academic license - for non-commercial use only

Gurobi 8.0.1 (linux64, Python) logging started Fri May  8 23:56:35 2020

Academic license - for non-commercial use only

Gurobi 8.0.1 (linux64, Python) logging started Sat May  9 10:05:25 2020

Academic license - for non-commercial use only

Gurobi 8.0.1 (linux64, Python) logging started Sat May  9 10:40:03 2020

Academic license - for non-commercial use only

Gurobi 8.0.1 (linux64, Python) logging started Sat May  9 11:14:28 2020

Academic license - for non-commercial use only

Gurobi 8.0.1 (linux64, Python) logging started Sat May  9 12:19:29 2020

Academic license - for non-commercial use only

Gurobi 8.0.1 (linux64, Python) logging started Sat May  9 13:30:04 2020

Academic license - for non-commercial use only

Gurobi 8.0.1 (linux64, Python) logging started Sat May  9 18:38:03 2020

Academic license - for non-commercial use only

Gurobi 8.0.1 (linux64, Python) logging started Sun May 10 00:39:43 2020

Academic license - for non-commercial use only

Gurobi 8.0.1 (linux64, Python) logging started Fri May 15 20:37:15 2020

Academic license - for non-commercial use only

Gurobi 8.0.1 (linux64, Python) logging started Sat May 16 00:33:37 2020

Academic license - for non-commercial use only

Gurobi 8.0.1 (linux64, Python) logging started Sat May 16 00:48:06 2020

Academic license - for non-commercial use only

Gurobi 8.0.1 (linux64, Python) logging started Sat May 16 07:39:06 2020

Academic license - for non-commercial use only

Gurobi 8.0.1 (linux64, Python) logging started Sat May 16 08:08:22 2020

Academic license - for non-commercial use only

Gurobi 8.0.1 (linux64, Python) logging started Sat May 16 08:31:54 2020

Academic license - for non-commercial use only

Gurobi 8.0.1 (linux64, Python) logging started Sat May 16 08:50:55 2020

Academic license - for non-commercial use only

Gurobi 8.0.1 (linux64, Python) logging started Sat May 16 09:29:50 2020

Academic license - for non-commercial use only

Gurobi 8.0.1 (linux64, Python) logging started Sat May 16 10:05:50 2020

Academic license - for non-commercial use only

Gurobi 8.0.1 (linux64, Python) logging started Sat May 16 11:26:38 2020

Academic license - for non-commercial use only

Gurobi 8.0.1 (linux64, Python) logging started Sat May 16 12:33:33 2020

Academic license - for non-commercial use only

Gurobi 8.0.1 (linux64, Python) logging started Sat May 16 12:38:58 2020

Academic license - for non-commercial use only

Gurobi 8.0.1 (linux64, Python) logging started Sat May 16 12:44:02 2020

Academic license - for non-commercial use only

Gurobi 8.0.1 (linux64, Python) logging started Sat May 16 12:44:28 2020

Academic license - for non-commercial use only

Gurobi 8.0.1 (linux64, Python) logging started Sat May 16 12:45:03 2020

Academic license - for non-commercial use only

Gurobi 8.0.1 (linux64, Python) logging started Sat May 16 12:49:02 2020

Academic license - for non-commercial use only

Gurobi 8.0.1 (linux64, Python) logging started Sat May 16 12:49:12 2020

Academic license - for non-commercial use only

Gurobi 8.0.1 (linux64, Python) logging started Sat May 16 12:52:48 2020

Academic license - for non-commercial use only

Gurobi 8.0.1 (linux64, Python) logging started Sat May 16 12:54:02 2020

Academic license - for non-commercial use only

Gurobi 8.0.1 (linux64, Python) logging started Sat May 16 12:57:08 2020

Academic license - for non-commercial use only

Gurobi 8.0.1 (linux64, Python) logging started Sat May 16 12:59:52 2020

Academic license - for non-commercial use only

Gurobi 8.0.1 (linux64, Python) logging started Sat May 16 13:05:24 2020

Academic license - for non-commercial use only

Gurobi 8.0.1 (linux64, Python) logging started Sat May 16 13:06:34 2020

Academic license - for non-commercial use only

Gurobi 8.0.1 (linux64, Python) logging started Sat May 16 13:11:26 2020

Academic license - for non-commercial use only

Gurobi 8.0.1 (linux64, Python) logging started Sat May 16 13:13:47 2020

Academic license - for non-commercial use only

Gurobi 8.0.1 (linux64, Python) logging started Sat May 16 13:14:28 2020

Academic license - for non-commercial use only

Gurobi 8.0.1 (linux64, Python) logging started Sat May 16 13:17:09 2020

Academic license - for non-commercial use only

Gurobi 8.0.1 (linux64, Python) logging started Sat May 16 13:22:04 2020

Academic license - for non-commercial use only

Gurobi 8.0.1 (linux64, Python) logging started Sat May 16 13:31:23 2020

Academic license - for non-commercial use only

Gurobi 8.0.1 (linux64, Python) logging started Sat May 16 13:32:43 2020

Academic license - for non-commercial use only

Gurobi 8.0.1 (linux64, Python) logging started Sat May 16 13:37:00 2020

Academic license - for non-commercial use only

Gurobi 8.0.1 (linux64, Python) logging started Sat May 16 14:21:20 2020

Academic license - for non-commercial use only

Gurobi 8.0.1 (linux64, Python) logging started Sat May 16 15:35:29 2020

Academic license - for non-commercial use only

Gurobi 8.0.1 (linux64, Python) logging started Sat May 16 17:18:48 2020

Academic license - for non-commercial use only

Gurobi 8.0.1 (linux64, Python) logging started Sat May 16 17:54:45 2020

Academic license - for non-commercial use only

Gurobi 8.0.1 (linux64, Python) logging started Sat May 16 18:23:42 2020

Academic license - for non-commercial use only

Gurobi 8.0.1 (linux64, Python) logging started Sat May 16 18:45:46 2020

Academic license - for non-commercial use only

Gurobi 8.0.1 (linux64, Python) logging started Sat May 16 18:59:02 2020

Academic license - for non-commercial use only

Gurobi 8.0.1 (linux64, Python) logging started Sat May 16 19:05:49 2020

Academic license - for non-commercial use only

Gurobi 8.0.1 (linux64, Python) logging started Sat May 16 19:10:10 2020

Academic license - for non-commercial use only

Gurobi 8.0.1 (linux64, Python) logging started Sat May 16 19:24:34 2020

Academic license - for non-commercial use only

Gurobi 8.0.1 (linux64, Python) logging started Sat May 16 19:38:44 2020

Academic license - for non-commercial use only

Gurobi 8.0.1 (linux64, Python) logging started Sat May 16 19:49:31 2020

Academic license - for non-commercial use only

Gurobi 8.0.1 (linux64, Python) logging started Sat May 16 20:00:05 2020

Academic license - for non-commercial use only

Gurobi 8.0.1 (linux64, Python) logging started Sat May 16 21:08:24 2020

Academic license - for non-commercial use only

Gurobi 8.0.1 (linux64, Python) logging started Sat May 16 21:20:45 2020

Academic license - for non-commercial use only

Gurobi 8.0.1 (linux64, Python) logging started Sat May 16 22:20:22 2020

Academic license - for non-commercial use only

Gurobi 8.0.1 (linux64, Python) logging started Sat May 16 22:29:54 2020

Academic license - for non-commercial use only

Gurobi 8.0.1 (linux64, Python) logging started Sat May 16 22:37:55 2020

Academic license - for non-commercial use only

Gurobi 8.0.1 (linux64, Python) logging started Sat May 16 22:48:16 2020

Academic license - for non-commercial use only

Gurobi 8.0.1 (linux64, Python) logging started Sat May 16 23:03:30 2020

Academic license - for non-commercial use only

Gurobi 8.0.1 (linux64, Python) logging started Sat May 16 23:10:08 2020

Academic license - for non-commercial use only

Gurobi 8.0.1 (linux64, Python) logging started Sat May 16 23:25:52 2020

Academic license - for non-commercial use only

Gurobi 8.0.1 (linux64, Python) logging started Sat May 16 23:37:05 2020

Academic license - for non-commercial use only

Gurobi 8.0.1 (linux64, Python) logging started Sat May 16 23:54:32 2020

Academic license - for non-commercial use only

Gurobi 8.0.1 (linux64, Python) logging started Sun May 17 00:07:06 2020

Academic license - for non-commercial use only

Gurobi 8.0.1 (linux64, Python) logging started Sun May 17 00:11:23 2020

Academic license - for non-commercial use only

Gurobi 8.0.1 (linux64, Python) logging started Sun May 17 00:22:02 2020

Academic license - for non-commercial use only

Gurobi 8.0.1 (linux64, Python) logging started Sun May 17 00:28:36 2020

Academic license - for non-commercial use only

Gurobi 8.0.1 (linux64, Python) logging started Sun May 17 00:45:42 2020

Academic license - for non-commercial use only

Gurobi 8.0.1 (linux64, Python) logging started Sun May 17 00:49:43 2020

Academic license - for non-commercial use only

Gurobi 8.0.1 (linux64, Python) logging started Sun May 17 00:56:47 2020

Academic license - for non-commercial use only

Gurobi 8.0.1 (linux64, Python) logging started Sun May 17 01:04:41 2020

Academic license - for non-commercial use only

Gurobi 8.0.1 (linux64, Python) logging started Sun May 17 01:13:32 2020

Academic license - for non-commercial use only

Gurobi 8.0.1 (linux64, Python) logging started Sun May 17 01:23:16 2020

Academic license - for non-commercial use only

Gurobi 8.0.1 (linux64, Python) logging started Sun May 17 01:34:34 2020

Academic license - for non-commercial use only

Gurobi 8.0.1 (linux64, Python) logging started Sun May 17 01:44:37 2020

Academic license - for non-commercial use only

Gurobi 8.0.1 (linux64, Python) logging started Sun May 17 01:57:56 2020

Academic license - for non-commercial use only

Gurobi 8.0.1 (linux64, Python) logging started Sun May 17 02:12:28 2020

Academic license - for non-commercial use only

Gurobi 8.0.1 (linux64, Python) logging started Sun May 17 02:28:44 2020

Academic license - for non-commercial use only

Gurobi 8.0.1 (linux64, Python) logging started Sun May 17 02:42:08 2020

Academic license - for non-commercial use only

Gurobi 8.0.1 (linux64, Python) logging started Sun May 17 02:58:49 2020

Academic license - for non-commercial use only

Gurobi 8.0.1 (linux64, Python) logging started Sun May 17 03:16:09 2020

Academic license - for non-commercial use only

Gurobi 8.0.1 (linux64, Python) logging started Sun May 17 03:33:50 2020

Academic license - for non-commercial use only

Gurobi 8.0.1 (linux64, Python) logging started Sun May 17 03:51:35 2020

Academic license - for non-commercial use only

Gurobi 8.0.1 (linux64, Python) logging started Sun May 17 04:09:49 2020

Academic license - for non-commercial use only

Gurobi 8.0.1 (linux64, Python) logging started Sun May 17 04:28:15 2020

Academic license - for non-commercial use only

Gurobi 8.0.1 (linux64, Python) logging started Sun May 17 09:30:15 2020

Academic license - for non-commercial use only

Gurobi 8.0.1 (linux64, Python) logging started Sun May 17 09:39:25 2020

Academic license - for non-commercial use only

Gurobi 8.0.1 (linux64, Python) logging started Sun May 17 09:45:20 2020

Academic license - for non-commercial use only

Gurobi 8.0.1 (linux64, Python) logging started Sun May 17 09:49:44 2020

Academic license - for non-commercial use only

Gurobi 8.0.1 (linux64, Python) logging started Sun May 17 09:56:07 2020

Academic license - for non-commercial use only

Gurobi 8.0.1 (linux64, Python) logging started Sun May 17 09:58:12 2020

Academic license - for non-commercial use only

Gurobi 8.0.1 (linux64, Python) logging started Sun May 17 10:08:54 2020

Academic license - for non-commercial use only

Gurobi 8.0.1 (linux64, Python) logging started Sun May 17 10:13:26 2020

Academic license - for non-commercial use only

Gurobi 8.0.1 (linux64, Python) logging started Sun May 17 10:22:49 2020

Academic license - for non-commercial use only

Gurobi 8.0.1 (linux64, Python) logging started Sun May 17 10:26:54 2020

Academic license - for non-commercial use only

Gurobi 8.0.1 (linux64, Python) logging started Sun May 17 10:33:28 2020

Academic license - for non-commercial use only

Gurobi 8.0.1 (linux64, Python) logging started Sun May 17 10:49:35 2020

Academic license - for non-commercial use only

Gurobi 8.0.1 (linux64, Python) logging started Sun May 17 10:50:46 2020

Academic license - for non-commercial use only

Gurobi 8.0.1 (linux64, Python) logging started Sun May 17 10:59:47 2020

Academic license - for non-commercial use only

Gurobi 8.0.1 (linux64, Python) logging started Sun May 17 11:08:03 2020

Academic license - for non-commercial use only

Gurobi 8.0.1 (linux64, Python) logging started Sun May 17 11:16:20 2020

Academic license - for non-commercial use only

Gurobi 8.0.1 (linux64, Python) logging started Sun May 17 11:27:11 2020

Academic license - for non-commercial use only

Gurobi 8.0.1 (linux64, Python) logging started Sun May 17 11:35:34 2020

Academic license - for non-commercial use only

Gurobi 8.0.1 (linux64, Python) logging started Sun May 17 11:39:35 2020

Academic license - for non-commercial use only

Gurobi 8.0.1 (linux64, Python) logging started Sun May 17 11:48:26 2020

Academic license - for non-commercial use only

Gurobi 8.0.1 (linux64, Python) logging started Sun May 17 11:57:23 2020

Academic license - for non-commercial use only

Gurobi 8.0.1 (linux64, Python) logging started Sun May 17 12:06:24 2020

Academic license - for non-commercial use only

Gurobi 8.0.1 (linux64, Python) logging started Sun May 17 12:15:43 2020

Academic license - for non-commercial use only

Gurobi 8.0.1 (linux64, Python) logging started Sun May 17 12:25:10 2020

Academic license - for non-commercial use only

Gurobi 8.0.1 (linux64, Python) logging started Sun May 17 12:40:35 2020

Academic license - for non-commercial use only

Gurobi 8.0.1 (linux64, Python) logging started Sun May 17 13:30:10 2020

Academic license - for non-commercial use only

Gurobi 8.0.1 (linux64, Python) logging started Sun May 17 14:33:11 2020

Academic license - for non-commercial use only

Gurobi 8.0.1 (linux64, Python) logging started Sun May 17 16:12:16 2020

Academic license - for non-commercial use only

Gurobi 8.0.1 (linux64, Python) logging started Sun May 17 17:03:03 2020

Academic license - for non-commercial use only

Gurobi 8.0.1 (linux64, Python) logging started Sun May 17 17:38:27 2020

Academic license - for non-commercial use only

Gurobi 8.0.1 (linux64, Python) logging started Sun May 17 18:44:34 2020

Academic license - for non-commercial use only

Gurobi 8.0.1 (linux64, Python) logging started Sun May 17 19:10:03 2020

Academic license - for non-commercial use only

Gurobi 8.0.1 (linux64, Python) logging started Sun May 17 19:30:49 2020

Academic license - for non-commercial use only

Gurobi 8.0.1 (linux64, Python) logging started Sun May 17 19:46:00 2020

Academic license - for non-commercial use only

Gurobi 8.0.1 (linux64, Python) logging started Sun May 17 20:01:22 2020

Academic license - for non-commercial use only

Gurobi 8.0.1 (linux64, Python) logging started Sun May 17 20:30:54 2020

Academic license - for non-commercial use only

Gurobi 8.0.1 (linux64, Python) logging started Sun May 17 20:40:22 2020

Academic license - for non-commercial use only

Gurobi 8.0.1 (linux64, Python) logging started Sun May 17 21:11:28 2020

Academic license - for non-commercial use only

Gurobi 8.0.1 (linux64, Python) logging started Sun May 17 21:35:55 2020

Academic license - for non-commercial use only

Gurobi 8.0.1 (linux64, Python) logging started Sun May 17 21:41:28 2020

Academic license - for non-commercial use only

Gurobi 8.0.1 (linux64, Python) logging started Sun May 17 21:53:42 2020

Academic license - for non-commercial use only

Gurobi 8.0.1 (linux64, Python) logging started Sun May 17 22:05:03 2020

Academic license - for non-commercial use only

Gurobi 8.0.1 (linux64, Python) logging started Sun May 17 22:11:14 2020

Academic license - for non-commercial use only

Gurobi 8.0.1 (linux64, Python) logging started Sun May 17 22:22:08 2020

Academic license - for non-commercial use only

Gurobi 8.0.1 (linux64, Python) logging started Sun May 17 22:31:33 2020

Academic license - for non-commercial use only

Gurobi 8.0.1 (linux64, Python) logging started Sun May 17 22:41:05 2020

Academic license - for non-commercial use only

Gurobi 8.0.1 (linux64, Python) logging started Sun May 17 22:46:14 2020

Academic license - for non-commercial use only

Gurobi 8.0.1 (linux64, Python) logging started Sun May 17 22:48:21 2020

Academic license - for non-commercial use only

Gurobi 8.0.1 (linux64, Python) logging started Sun May 17 22:58:20 2020

Academic license - for non-commercial use only

Gurobi 8.0.1 (linux64, Python) logging started Sun May 17 23:32:58 2020

Academic license - for non-commercial use only

Gurobi 8.0.1 (linux64, Python) logging started Sun May 17 23:45:50 2020

Academic license - for non-commercial use only

Gurobi 8.0.1 (linux64, Python) logging started Mon May 18 00:06:38 2020

Academic license - for non-commercial use only

Gurobi 8.0.1 (linux64, Python) logging started Mon May 18 00:16:30 2020

Academic license - for non-commercial use only

Gurobi 8.0.1 (linux64, Python) logging started Mon May 18 00:36:26 2020

Academic license - for non-commercial use only

Gurobi 8.0.1 (linux64, Python) logging started Mon May 18 00:48:13 2020

Academic license - for non-commercial use only

Gurobi 8.0.1 (linux64, Python) logging started Mon May 18 01:07:59 2020

Academic license - for non-commercial use only

Gurobi 8.0.1 (linux64, Python) logging started Mon May 18 01:24:21 2020

Academic license - for non-commercial use only

Gurobi 8.0.1 (linux64, Python) logging started Mon May 18 01:30:58 2020

Academic license - for non-commercial use only

Gurobi 8.0.1 (linux64, Python) logging started Mon May 18 01:42:49 2020

Academic license - for non-commercial use only

Gurobi 8.0.1 (linux64, Python) logging started Mon May 18 01:50:16 2020

Academic license - for non-commercial use only

Gurobi 8.0.1 (linux64, Python) logging started Mon May 18 02:38:29 2020

Academic license - for non-commercial use only

Gurobi 8.0.1 (linux64, Python) logging started Mon May 18 02:40:32 2020

Academic license - for non-commercial use only

Gurobi 8.0.1 (linux64, Python) logging started Mon May 18 02:43:27 2020

Academic license - for non-commercial use only

Gurobi 8.0.1 (linux64, Python) logging started Mon May 18 02:55:21 2020

Academic license - for non-commercial use only

Gurobi 8.0.1 (linux64, Python) logging started Mon May 18 03:48:01 2020

Academic license - for non-commercial use only

Gurobi 8.0.1 (linux64, Python) logging started Mon May 18 03:52:31 2020

Academic license - for non-commercial use only

Gurobi 8.0.1 (linux64, Python) logging started Mon May 18 04:03:44 2020

Academic license - for non-commercial use only

Gurobi 8.0.1 (linux64, Python) logging started Mon May 18 04:33:22 2020

Academic license - for non-commercial use only

Gurobi 8.0.1 (linux64, Python) logging started Mon May 18 04:50:17 2020

Academic license - for non-commercial use only

Gurobi 8.0.1 (linux64, Python) logging started Mon May 18 05:00:25 2020

Academic license - for non-commercial use only

Gurobi 8.0.1 (linux64, Python) logging started Mon May 18 06:11:47 2020

Academic license - for non-commercial use only

Gurobi 8.0.1 (linux64, Python) logging started Mon May 18 06:13:38 2020

Academic license - for non-commercial use only

Gurobi 8.0.1 (linux64, Python) logging started Mon May 18 06:21:35 2020

Academic license - for non-commercial use only

Gurobi 8.0.1 (linux64, Python) logging started Mon May 18 06:46:03 2020

Academic license - for non-commercial use only

Gurobi 8.0.1 (linux64, Python) logging started Mon May 18 08:06:25 2020

Academic license - for non-commercial use only

Gurobi 8.0.1 (linux64, Python) logging started Mon May 18 08:19:42 2020

Academic license - for non-commercial use only

Gurobi 8.0.1 (linux64, Python) logging started Mon May 18 08:55:21 2020

Academic license - for non-commercial use only
